certificates/rado_a9_c203_N28.cnf
c Rad2 upper bound instance: x1 + 9*x2 - x3 = 203, interval [1,28]
p cnf 28 172
1 5 23 0
-1 -5 -23 0
1 14 24 0
-1 -14 -24 0
1 23 25 0
-1 -23 -25 0
2 6 23 0
-2 -6 -23 0
2 15 24 0
-2 -15 -24 0
2 24 25 0
-2 -24 -25 0
3 7 23 0
-3 -7 -23 0
3 16 24 0
-3 -16 -24 0
3 25 0
-3 -25 0
4 8 23 0
-4 -8 -23 0
4 17 24 0
-4 -17 -24 0
4 25 26 0
-4 -25 -26 0
5 9 23 0
-5 -9 -23 0
5 18 24 0
-5 -18 -24 0
5 25 27 0
-5 -25 -27 0
1 6 22 0
-1 -6 -22 0
6 10 23 0
-6 -10 -23 0
6 19 24 0
-6 -19 -24 0
6 25 28 0
-6 -25 -28 0
2 7 22 0
-2 -7 -22 0
7 11 23 0
-7 -11 -23 0
7 20 24 0
-7 -20 -24 0
3 8 22 0
-3 -8 -22 0
8 12 23 0
-8 -12 -23 0
8 21 24 0
-8 -21 -24 0
4 9 22 0
-4 -9 -22 0
9 13 23 0
-9 -13 -23 0
9 22 24 0
-9 -22 -24 0
5 10 22 0
-5 -10 -22 0
10 14 23 0
-10 -14 -23 0
10 23 24 0
-10 -23 -24 0
6 11 22 0
-6 -11 -22 0
11 15 23 0
-11 -15 -23 0
11 24 0
-11 -24 0
7 12 22 0
-7 -12 -22 0
12 16 23 0
-12 -16 -23 0
12 24 25 0
-12 -24 -25 0
8 13 22 0
-8 -13 -22 0
13 17 23 0
-13 -17 -23 0
13 24 26 0
-13 -24 -26 0
9 14 22 0
-9 -14 -22 0
14 18 23 0
-14 -18 -23 0
14 24 27 0
-14 -24 -27 0
1 15 21 0
-1 -15 -21 0
10 15 22 0
-10 -15 -22 0
15 19 23 0
-15 -19 -23 0
15 24 28 0
-15 -24 -28 0
2 16 21 0
-2 -16 -21 0
11 16 22 0
-11 -16 -22 0
16 20 23 0
-16 -20 -23 0
3 17 21 0
-3 -17 -21 0
12 17 22 0
-12 -17 -22 0
17 21 23 0
-17 -21 -23 0
4 18 21 0
-4 -18 -21 0
13 18 22 0
-13 -18 -22 0
18 22 23 0
-18 -22 -23 0
5 19 21 0
-5 -19 -21 0
14 19 22 0
-14 -19 -22 0
19 23 0
-19 -23 0
6 20 21 0
-6 -20 -21 0
15 20 22 0
-15 -20 -22 0
20 23 24 0
-20 -23 -24 0
7 21 0
-7 -21 0
16 21 22 0
-16 -21 -22 0
21 23 25 0
-21 -23 -25 0
8 21 22 0
-8 -21 -22 0
17 22 0
-17 -22 0
22 23 26 0
-22 -23 -26 0
9 21 23 0
-9 -21 -23 0
23 27 0
-23 -27 0
1 20 24 0
-1 -20 -24 0
10 21 24 0
-10 -21 -24 0
19 22 24 0
-19 -22 -24 0
23 24 28 0
-23 -24 -28 0
2 20 25 0
-2 -20 -25 0
11 21 25 0
-11 -21 -25 0
20 22 25 0
-20 -22 -25 0
3 20 26 0
-3 -20 -26 0
12 21 26 0
-12 -21 -26 0
21 22 26 0
-21 -22 -26 0
4 20 27 0
-4 -20 -27 0
13 21 27 0
-13 -21 -27 0
22 27 0
-22 -27 0
5 20 28 0
-5 -20 -28 0
14 21 28 0
-14 -21 -28 0
22 23 28 0
-22 -23 -28 0
