certificates/rado_a9_c203_N28.drat
-25 23 -28 0
-27 -28 0
-28 0
25 -23 0
27 0
-23 0
-22 0
19 0
24 0
0
